p cnf 261 696
1 2 3 0
1 -2 -3 0
-1 2 -3 0
-1 -2 3 0
4 5 -6 0
4 -5 6 0
-4 5 6 0
-4 -5 -6 0
7 8 9 0
7 -8 -9 0
-7 8 -9 0
-7 -8 9 0
10 11 12 0
10 -11 -12 0
-10 11 -12 0
-10 -11 12 0
13 14 -15 0
13 -14 15 0
-13 14 15 0
-13 -14 -15 0
16 17 -18 0
16 -17 18 0
-16 17 18 0
-16 -17 -18 0
19 20 -21 0
19 -20 21 0
-19 20 21 0
-19 -20 -21 0
22 23 -24 0
22 -23 24 0
-22 23 24 0
-22 -23 -24 0
25 26 -27 0
25 -26 27 0
-25 26 27 0
-25 -26 -27 0
28 29 30 0
28 -29 -30 0
-28 29 -30 0
-28 -29 30 0
31 32 -33 0
31 -32 33 0
-31 32 33 0
-31 -32 -33 0
34 35 36 0
34 -35 -36 0
-34 35 -36 0
-34 -35 36 0
37 38 39 0
37 -38 -39 0
-37 38 -39 0
-37 -38 39 0
28 40 41 0
28 -40 -41 0
-28 40 -41 0
-28 -40 41 0
42 43 44 0
42 -43 -44 0
-42 43 -44 0
-42 -43 44 0
34 45 -46 0
34 -45 46 0
-34 45 46 0
-34 -45 -46 0
47 48 49 0
47 -48 -49 0
-47 48 -49 0
-47 -48 49 0
4 50 -51 0
4 -50 51 0
-4 50 51 0
-4 -50 -51 0
1 52 53 0
1 -52 -53 0
-1 52 -53 0
-1 -52 53 0
7 54 -55 0
7 -54 55 0
-7 54 55 0
-7 -54 -55 0
13 56 -57 0
13 -56 57 0
-13 56 57 0
-13 -56 -57 0
58 59 -60 0
58 -59 60 0
-58 59 60 0
-58 -59 -60 0
61 62 63 0
61 -62 -63 0
-61 62 -63 0
-61 -62 63 0
64 65 -66 0
64 -65 66 0
-64 65 66 0
-64 -65 -66 0
42 67 68 0
42 -67 -68 0
-42 67 -68 0
-42 -67 68 0
69 70 -71 0
69 -70 71 0
-69 70 71 0
-69 -70 -71 0
72 73 -74 0
72 -73 74 0
-72 73 74 0
-72 -73 -74 0
8 75 -76 0
8 -75 76 0
-8 75 76 0
-8 -75 -76 0
77 78 -79 0
77 -78 79 0
-77 78 79 0
-77 -78 -79 0
10 80 81 0
10 -80 -81 0
-10 80 -81 0
-10 -80 81 0
82 83 -84 0
82 -83 84 0
-82 83 84 0
-82 -83 -84 0
85 86 87 0
85 -86 -87 0
-85 86 -87 0
-85 -86 87 0
88 89 -90 0
88 -89 90 0
-88 89 90 0
-88 -89 -90 0
91 92 93 0
91 -92 -93 0
-91 92 -93 0
-91 -92 93 0
94 95 96 0
94 -95 -96 0
-94 95 -96 0
-94 -95 96 0
43 97 98 0
43 -97 -98 0
-43 97 -98 0
-43 -97 98 0
52 99 100 0
52 -99 -100 0
-52 99 -100 0
-52 -99 100 0
22 80 -101 0
22 -80 101 0
-22 80 101 0
-22 -80 -101 0
102 103 -104 0
102 -103 104 0
-102 103 104 0
-102 -103 -104 0
105 106 -107 0
105 -106 107 0
-105 106 107 0
-105 -106 -107 0
108 109 110 0
108 -109 -110 0
-108 109 -110 0
-108 -109 110 0
111 112 -113 0
111 -112 113 0
-111 112 113 0
-111 -112 -113 0
114 115 116 0
114 -115 -116 0
-114 115 -116 0
-114 -115 116 0
117 118 119 0
117 -118 -119 0
-117 118 -119 0
-117 -118 119 0
58 120 121 0
58 -120 -121 0
-58 120 -121 0
-58 -120 121 0
11 35 -122 0
11 -35 122 0
-11 35 122 0
-11 -35 -122 0
85 108 -123 0
85 -108 123 0
-85 108 123 0
-85 -108 -123 0
97 124 -125 0
97 -124 125 0
-97 124 125 0
-97 -124 -125 0
50 94 -126 0
50 -94 126 0
-50 94 126 0
-50 -94 -126 0
16 127 -128 0
16 -127 128 0
-16 127 128 0
-16 -127 -128 0
129 130 -131 0
129 -130 131 0
-129 130 131 0
-129 -130 -131 0
9 132 -133 0
9 -132 133 0
-9 132 133 0
-9 -132 -133 0
127 134 -135 0
127 -134 135 0
-127 134 135 0
-127 -134 -135 0
136 137 138 0
136 -137 -138 0
-136 137 -138 0
-136 -137 138 0
45 139 140 0
45 -139 -140 0
-45 139 -140 0
-45 -139 140 0
141 142 143 0
141 -142 -143 0
-141 142 -143 0
-141 -142 143 0
144 145 -146 0
144 -145 146 0
-144 145 146 0
-144 -145 -146 0
88 144 147 0
88 -144 -147 0
-88 144 -147 0
-88 -144 147 0
148 149 -150 0
148 -149 150 0
-148 149 150 0
-148 -149 -150 0
89 151 -152 0
89 -151 152 0
-89 151 152 0
-89 -151 -152 0
53 153 -154 0
53 -153 154 0
-53 153 154 0
-53 -153 -154 0
155 156 157 0
155 -156 -157 0
-155 156 -157 0
-155 -156 157 0
158 159 160 0
158 -159 -160 0
-158 159 -160 0
-158 -159 160 0
120 161 -162 0
120 -161 162 0
-120 161 162 0
-120 -161 -162 0
46 72 -77 0
46 -72 77 0
-46 72 77 0
-46 -72 -77 0
37 163 164 0
37 -163 -164 0
-37 163 -164 0
-37 -163 164 0
165 166 -167 0
165 -166 167 0
-165 166 167 0
-165 -166 -167 0
2 168 169 0
2 -168 -169 0
-2 168 -169 0
-2 -168 169 0
82 170 -171 0
82 -170 171 0
-82 170 171 0
-82 -170 -171 0
168 172 -173 0
168 -172 173 0
-168 172 173 0
-168 -172 -173 0
123 124 -163 0
123 -124 163 0
-123 124 163 0
-123 -124 -163 0
174 175 176 0
174 -175 -176 0
-174 175 -176 0
-174 -175 176 0
139 177 -178 0
139 -177 178 0
-139 177 178 0
-139 -177 -178 0
91 179 180 0
91 -179 -180 0
-91 179 -180 0
-91 -179 180 0
129 181 182 0
129 -181 -182 0
-129 181 -182 0
-129 -181 182 0
51 86 183 0
51 -86 -183 0
-51 86 -183 0
-51 -86 183 0
132 184 -185 0
132 -184 185 0
-132 184 185 0
-132 -184 -185 0
105 186 187 0
105 -186 -187 0
-105 186 -187 0
-105 -186 187 0
188 189 -190 0
188 -189 190 0
-188 189 190 0
-188 -189 -190 0
31 188 -191 0
31 -188 191 0
-31 188 191 0
-31 -188 -191 0
130 165 192 0
130 -165 -192 0
-130 165 -192 0
-130 -165 192 0
14 69 -193 0
14 -69 193 0
-14 69 193 0
-14 -69 -193 0
131 133 194 0
131 -133 -194 0
-131 133 -194 0
-131 -133 194 0
19 141 166 0
19 -141 -166 0
-19 141 -166 0
-19 -141 166 0
161 195 -196 0
161 -195 196 0
-161 195 196 0
-161 -195 -196 0
61 87 197 0
61 -87 -197 0
-61 87 -197 0
-61 -87 197 0
95 198 199 0
95 -198 -199 0
-95 198 -199 0
-95 -198 199 0
200 201 -202 0
200 -201 202 0
-200 201 202 0
-200 -201 -202 0
20 114 -203 0
20 -114 203 0
-20 114 203 0
-20 -114 -203 0
25 54 -204 0
25 -54 204 0
-25 54 204 0
-25 -54 -204 0
205 206 -207 0
205 -206 207 0
-205 206 207 0
-205 -206 -207 0
106 200 208 0
106 -200 -208 0
-106 200 -208 0
-106 -200 208 0
121 179 -209 0
121 -179 209 0
-121 179 209 0
-121 -179 -209 0
17 205 210 0
17 -205 -210 0
-17 205 -210 0
-17 -205 210 0
211 212 213 0
211 -212 -213 0
-211 212 -213 0
-211 -212 213 0
78 145 214 0
78 -145 -214 0
-78 145 -214 0
-78 -145 214 0
64 164 -215 0
64 -164 215 0
-64 164 215 0
-64 -164 -215 0
102 109 125 0
102 -109 -125 0
-102 109 -125 0
-102 -109 125 0
111 128 140 0
111 -128 -140 0
-111 128 -140 0
-111 -128 140 0
15 148 216 0
15 -148 -216 0
-15 148 -216 0
-15 -148 216 0
56 217 -218 0
56 -217 218 0
-56 217 218 0
-56 -217 -218 0
70 107 219 0
70 -107 -219 0
-70 107 -219 0
-70 -107 219 0
194 220 -221 0
194 -220 221 0
-194 220 221 0
-194 -220 -221 0
32 79 -222 0
32 -79 222 0
-32 79 222 0
-32 -79 -222 0
38 149 223 0
38 -149 -223 0
-38 149 -223 0
-38 -149 223 0
75 224 -225 0
75 -224 225 0
-75 224 225 0
-75 -224 -225 0
57 158 -184 0
57 -158 184 0
-57 158 184 0
-57 -158 -184 0
26 201 226 0
26 -201 -226 0
-26 201 -226 0
-26 -201 226 0
62 227 -228 0
62 -227 228 0
-62 227 228 0
-62 -227 -228 0
36 211 -229 0
36 -211 229 0
-36 211 229 0
-36 -211 -229 0
206 217 230 0
206 -217 -230 0
-206 217 -230 0
-206 -217 230 0
204 231 232 0
204 -231 -232 0
-204 231 -232 0
-204 -231 232 0
212 233 -234 0
212 -233 234 0
-212 233 234 0
-212 -233 -234 0
92 235 236 0
92 -235 -236 0
-92 235 -236 0
-92 -235 236 0
83 117 -174 0
83 -117 174 0
-83 117 174 0
-83 -117 -174 0
67 147 -237 0
67 -147 237 0
-67 147 237 0
-67 -147 -237 0
153 170 180 0
153 -170 -180 0
-153 170 -180 0
-153 -170 180 0
235 238 -239 0
235 -238 239 0
-235 238 239 0
-235 -238 -239 0
151 171 230 0
151 -171 -230 0
-151 171 -230 0
-151 -171 230 0
198 219 -220 0
198 -219 220 0
-198 219 220 0
-198 -219 -220 0
155 169 240 0
155 -169 -240 0
-155 169 -240 0
-155 -169 240 0
93 134 -241 0
93 -134 241 0
-93 134 241 0
-93 -134 -241 0
112 156 175 0
112 -156 -175 0
-112 156 -175 0
-112 -156 175 0
39 101 -177 0
39 -101 177 0
-39 101 177 0
-39 -101 -177 0
59 154 -210 0
59 -154 210 0
-59 154 210 0
-59 -154 -210 0
176 241 242 0
176 -241 -242 0
-176 241 -242 0
-176 -241 242 0
81 152 181 0
81 -152 -181 0
-81 152 -181 0
-81 -152 181 0
185 222 243 0
185 -222 -243 0
-185 222 -243 0
-185 -222 243 0
23 150 -243 0
23 -150 243 0
-23 150 243 0
-23 -150 -243 0
110 203 -244 0
110 -203 244 0
-110 203 244 0
-110 -203 -244 0
99 142 245 0
99 -142 -245 0
-99 142 -245 0
-99 -142 245 0
84 246 -247 0
84 -246 247 0
-84 246 247 0
-84 -246 -247 0
47 221 -240 0
47 -221 240 0
-47 221 240 0
-47 -221 -240 0
76 189 -248 0
76 -189 248 0
-76 189 248 0
-76 -189 -248 0
136 146 -249 0
136 -146 249 0
-136 146 249 0
-136 -146 -249 0
60 103 250 0
60 -103 -250 0
-60 103 -250 0
-60 -103 250 0
29 104 -251 0
29 -104 251 0
-29 104 251 0
-29 -104 -251 0
68 118 -252 0
68 -118 252 0
-68 118 252 0
-68 -118 -252 0
96 183 -250 0
96 -183 250 0
-96 183 250 0
-96 -183 -250 0
12 24 40 0
12 -24 -40 0
-12 24 -40 0
-12 -24 40 0
21 213 -253 0
21 -213 253 0
-21 213 253 0
-21 -213 -253 0
48 122 -245 0
48 -122 245 0
-48 122 245 0
-48 -122 -245 0
135 137 -254 0
135 -137 254 0
-135 137 254 0
-135 -137 -254 0
5 215 255 0
5 -215 -255 0
-5 215 -255 0
-5 -215 255 0
49 172 -244 0
49 -172 244 0
-49 172 244 0
-49 -172 -244 0
191 251 -256 0
191 -251 256 0
-191 251 256 0
-191 -251 -256 0
6 119 138 0
6 -119 -138 0
-6 119 -138 0
-6 -119 138 0
143 157 257 0
143 -157 -257 0
-143 157 -257 0
-143 -157 257 0
71 178 -236 0
71 -178 236 0
-71 178 236 0
-71 -178 -236 0
27 159 229 0
27 -159 -229 0
-27 159 -229 0
-27 -159 229 0
162 207 258 0
162 -207 -258 0
-162 207 -258 0
-162 -207 258 0
33 167 246 0
33 -167 -246 0
-33 167 -246 0
-33 -167 246 0
63 247 -253 0
63 -247 253 0
-63 247 253 0
-63 -247 -253 0
231 252 255 0
231 -252 -255 0
-231 252 -255 0
-231 -252 255 0
73 202 -224 0
73 -202 224 0
-73 202 224 0
-73 -202 -224 0
44 90 -227 0
44 -90 227 0
-44 90 227 0
-44 -90 -227 0
218 223 -238 0
218 -223 238 0
-218 223 238 0
-218 -223 -238 0
65 216 -237 0
65 -216 237 0
-65 216 237 0
-65 -216 -237 0
173 190 192 0
173 -190 -192 0
-173 190 -192 0
-173 -190 192 0
30 186 228 0
30 -186 -228 0
-30 186 -228 0
-30 -186 228 0
18 197 259 0
18 -197 -259 0
-18 197 -259 0
-18 -197 259 0
3 126 -258 0
3 -126 258 0
-3 126 258 0
-3 -126 -258 0
113 242 260 0
113 -242 -260 0
-113 242 -260 0
-113 -242 260 0
208 226 -249 0
208 -226 249 0
-208 226 249 0
-208 -226 -249 0
195 254 259 0
195 -254 -259 0
-195 254 -259 0
-195 -254 259 0
115 187 248 0
115 -187 -248 0
-115 187 -248 0
-115 -187 248 0
196 209 239 0
196 -209 -239 0
-196 209 -239 0
-196 -209 239 0
74 116 257 0
74 -116 -257 0
-74 116 -257 0
-74 -116 257 0
55 256 -261 0
55 -256 261 0
-55 256 261 0
-55 -256 -261 0
41 232 -233 0
41 -232 233 0
-41 232 233 0
-41 -232 -233 0
98 182 261 0
98 -182 -261 0
-98 182 -261 0
-98 -182 261 0
100 234 -260 0
100 -234 260 0
-100 234 260 0
-100 -234 -260 0
66 199 -214 0
66 -199 214 0
-66 199 214 0
-66 -199 -214 0
160 193 -225 0
160 -193 225 0
-160 193 225 0
-160 -193 -225 0
